c "417113.clq"
p edge 150 584
e 1 5
e 1 6
e 1 7
e 1 9
e 1 12
e 1 15
e 1 30
e 1 33
e 1 48
e 1 63
e 1 69
e 1 90
e 1 108
e 1 113
e 1 118
e 1 124
e 1 127
e 1 145
e 2 5
e 2 6
e 2 8
e 2 10
e 2 18
e 2 19
e 2 26
e 2 30
e 2 39
e 2 73
e 2 123
e 2 127
e 3 5
e 3 7
e 3 12
e 3 17
e 3 18
e 3 21
e 3 25
e 3 38
e 3 41
e 3 46
e 3 53
e 3 101
e 3 121
e 3 149
e 4 5
e 4 6
e 4 7
e 4 10
e 4 11
e 4 15
e 4 17
e 4 19
e 4 20
e 4 21
e 4 22
e 4 24
e 4 46
e 4 67
e 4 68
e 4 78
e 4 93
e 4 110
e 4 120
e 4 128
e 4 148
e 5 6
e 5 8
e 5 9
e 5 10
e 5 13
e 5 18
e 5 24
e 5 25
e 5 29
e 5 32
e 5 44
e 5 48
e 5 52
e 5 73
e 5 84
e 5 86
e 5 139
e 6 7
e 6 8
e 6 9
e 6 10
e 6 12
e 6 15
e 6 18
e 6 21
e 6 23
e 6 24
e 6 27
e 6 31
e 6 34
e 6 36
e 6 39
e 6 43
e 6 54
e 6 64
e 6 65
e 6 70
e 6 71
e 6 75
e 6 76
e 6 80
e 6 82
e 6 84
e 6 91
e 6 107
e 6 116
e 6 117
e 6 126
e 6 136
e 6 137
e 7 8
e 7 11
e 7 13
e 7 16
e 7 20
e 7 34
e 7 39
e 7 50
e 7 62
e 7 68
e 7 76
e 7 77
e 7 96
e 7 103
e 7 119
e 8 9
e 8 11
e 8 12
e 8 13
e 8 14
e 8 15
e 8 16
e 8 19
e 8 21
e 8 22
e 8 23
e 8 26
e 8 27
e 8 32
e 8 34
e 8 35
e 8 37
e 8 44
e 8 45
e 8 47
e 8 54
e 8 62
e 8 74
e 8 79
e 8 94
e 8 95
e 8 110
e 8 114
e 8 124
e 8 127
e 8 143
e 9 14
e 9 16
e 9 17
e 9 28
e 9 32
e 9 43
e 9 45
e 9 49
e 9 50
e 9 54
e 9 57
e 9 78
e 9 79
e 9 93
e 9 102
e 9 110
e 9 115
e 9 136
e 9 137
e 9 146
e 9 150
e 10 11
e 10 13
e 10 14
e 10 17
e 10 23
e 10 25
e 10 26
e 10 28
e 10 37
e 10 42
e 10 45
e 10 46
e 10 48
e 10 49
e 10 56
e 10 64
e 10 65
e 10 67
e 10 74
e 10 82
e 10 84
e 10 88
e 10 100
e 10 101
e 10 106
e 10 114
e 10 116
e 10 119
e 10 121
e 10 132
e 10 139
e 10 140
e 10 141
e 10 149
e 10 150
e 11 14
e 11 28
e 11 41
e 11 42
e 11 43
e 11 49
e 11 63
e 11 89
e 11 91
e 11 116
e 11 119
e 11 141
e 12 16
e 12 24
e 12 25
e 12 38
e 12 42
e 12 55
e 12 77
e 12 112
e 12 136
e 12 138
e 13 19
e 13 33
e 13 38
e 13 40
e 13 70
e 13 97
e 13 102
e 13 107
e 13 109
e 13 114
e 14 27
e 14 29
e 14 31
e 14 41
e 14 47
e 14 52
e 14 61
e 14 66
e 14 69
e 14 75
e 14 97
e 14 118
e 14 135
e 14 144
e 15 22
e 15 29
e 15 47
e 15 60
e 15 102
e 15 106
e 15 128
e 15 131
e 16 20
e 16 22
e 16 36
e 16 47
e 16 59
e 16 74
e 16 75
e 16 81
e 16 86
e 16 89
e 16 93
e 16 96
e 16 98
e 16 105
e 16 124
e 16 128
e 16 137
e 17 20
e 17 23
e 17 30
e 17 35
e 17 36
e 17 48
e 17 59
e 17 66
e 17 85
e 17 89
e 17 129
e 17 130
e 17 138
e 18 83
e 19 26
e 19 33
e 19 69
e 19 91
e 19 141
e 20 39
e 20 55
e 21 35
e 21 42
e 21 45
e 21 61
e 21 63
e 21 73
e 21 88
e 21 92
e 21 94
e 21 108
e 21 122
e 21 134
e 21 137
e 21 139
e 21 145
e 22 27
e 22 32
e 22 60
e 22 62
e 22 82
e 22 103
e 22 104
e 22 108
e 22 112
e 22 132
e 22 140
e 22 143
e 23 34
e 23 44
e 23 87
e 24 28
e 24 29
e 24 33
e 24 37
e 24 51
e 24 54
e 24 55
e 24 71
e 24 81
e 24 83
e 24 85
e 24 100
e 24 103
e 24 113
e 24 122
e 24 123
e 24 127
e 24 142
e 25 30
e 25 92
e 26 56
e 26 67
e 26 70
e 26 76
e 26 92
e 26 102
e 26 125
e 26 134
e 27 31
e 27 41
e 27 53
e 27 66
e 27 78
e 28 37
e 28 59
e 28 62
e 29 74
e 30 31
e 30 36
e 30 44
e 30 52
e 30 64
e 30 81
e 30 113
e 30 147
e 31 35
e 31 38
e 31 50
e 31 55
e 31 130
e 31 135
e 31 142
e 31 145
e 32 40
e 32 57
e 32 58
e 32 77
e 32 81
e 32 107
e 33 61
e 33 71
e 33 78
e 33 121
e 34 51
e 36 101
e 36 105
e 36 109
e 37 40
e 37 53
e 37 90
e 37 126
e 37 129
e 37 136
e 38 40
e 38 49
e 38 51
e 38 56
e 38 70
e 38 88
e 38 91
e 38 93
e 38 111
e 38 120
e 38 129
e 40 43
e 40 56
e 40 59
e 40 98
e 41 46
e 41 68
e 42 65
e 42 82
e 43 50
e 43 83
e 43 87
e 43 122
e 43 131
e 43 134
e 43 142
e 44 84
e 45 123
e 45 132
e 45 144
e 46 53
e 46 58
e 46 60
e 46 68
e 46 71
e 46 79
e 46 96
e 46 112
e 46 140
e 46 148
e 47 52
e 47 58
e 47 65
e 47 94
e 47 95
e 47 120
e 47 147
e 48 51
e 48 67
e 48 72
e 48 92
e 48 105
e 48 149
e 49 57
e 50 95
e 51 61
e 51 72
e 51 90
e 52 57
e 52 60
e 52 87
e 53 58
e 53 77
e 53 99
e 54 72
e 54 80
e 54 130
e 56 96
e 56 115
e 56 142
e 58 64
e 59 66
e 59 69
e 59 125
e 59 131
e 59 143
e 60 63
e 60 97
e 60 113
e 60 115
e 61 75
e 61 112
e 61 114
e 61 133
e 62 87
e 63 73
e 63 90
e 63 104
e 64 117
e 64 144
e 65 86
e 65 133
e 66 94
e 67 76
e 67 97
e 67 99
e 67 105
e 67 138
e 67 146
e 68 101
e 68 130
e 70 80
e 70 85
e 71 72
e 71 79
e 71 80
e 71 108
e 71 120
e 71 121
e 73 106
e 73 111
e 73 116
e 73 145
e 74 83
e 74 122
e 75 99
e 75 110
e 75 147
e 78 98
e 79 86
e 79 107
e 80 85
e 80 100
e 80 123
e 80 125
e 80 129
e 81 100
e 84 104
e 85 89
e 86 88
e 87 99
e 87 109
e 87 125
e 88 119
e 91 133
e 92 95
e 92 104
e 92 117
e 92 118
e 93 98
e 93 118
e 93 146
e 94 126
e 95 106
e 95 139
e 96 111
e 96 117
e 96 135
e 96 150
e 98 103
e 98 109
e 98 128
e 99 150
e 100 147
e 101 111
e 103 124
e 103 132
e 104 115
e 110 133
e 117 135
e 120 140
e 120 148
e 122 131
e 124 126
e 124 138
e 124 143
e 124 144
e 127 148
e 130 146
e 132 134
e 135 141
e 142 149
